
Gurobi 6.5.2 (linux64) logging started Wed Sep 14 14:58:48 2016

Optimize a model with 41 rows, 115 columns and 231 nonzeros
Coefficient statistics:
  Matrix range    [1e+00, 2e+00]
  Objective range [2e+00, 1e+02]
  Bounds range    [1e+00, 1e+00]
  RHS range       [1e+00, 1e+00]
Presolve removed 21 rows and 20 columns
Presolve time: 0.00s
Presolved: 20 rows, 95 columns, 190 nonzeros
Variable types: 0 continuous, 95 integer (95 binary)

Root relaxation: objective 4.460000e+02, 22 iterations, 0.00 seconds

    Nodes    |    Current Node    |     Objective Bounds      |     Work
 Expl Unexpl |  Obj  Depth IntInf | Incumbent    BestBd   Gap | It/Node Time

     0     0  446.00000    0    6          -  446.00000      -     -    0s
     0     0  456.50000    0   12          -  456.50000      -     -    0s
     0     0  460.50000    0    4          -  460.50000      -     -    0s
     0     0  461.00000    0    8          -  461.00000      -     -    0s
     0     0  461.00000    0    -          -  461.00000      -     -    0s
*    5     3               2     470.0000000  467.00000  0.64%   2.6    0s
*    6     1               3     469.0000000  467.00000  0.43%   2.8    0s

Cutting planes:
  Gomory: 3
  MIR: 1
  Zero half: 4
  Lazy constraints: 10

Explored 8 nodes (49 simplex iterations) in 0.01 seconds
Thread count was 8 (of 8 available processors)

Optimal solution found (tolerance 1.00e-04)
Best objective 4.690000000000e+02, best bound 4.690000000000e+02, gap 0.0%
